param n := 38;
param c := 100;
param w := 
1 99
2 98
3 97
4 97
5 97
6 95
7 95
8 93
9 92
10 92
11 91
12 87
13 83
14 77
15 68
16 66
17 63
18 61
19 60
20 60
21 58
22 57
23 56
24 52
25 51
26 50
27 46
28 46
29 42
30 33
31 33
32 28
33 23
34 20
35 16
36 13
37 3
38 3
;